30

C 1.224127 0.335352 0.036104
C 0.012362 1.045679 0.065932
C -1.198179 0.332367 0.065830
C -1.194394 -1.060949 0.035001
C 0.015803 -1.757091 0.002991
C 1.224778 -1.057694 0.004758
C 0.028770 2.538031 0.092560
O 1.086959 3.196563 0.100904
O -1.164450 3.131567 0.104780
C -1.058743 8.681724 0.036087
C 0.153316 7.971883 0.065610
C 1.363569 8.685676 0.065503
C 1.359192 10.079005 0.035061
C 0.148705 10.774658 0.003356
C -1.059985 10.074770 0.005038
C 0.137304 6.479532 0.092080
O -0.920797 5.820884 0.101889
O 1.330607 5.886124 0.102551
H 2.159344 0.891552 0.037439
H -2.138738 0.878620 0.090372
H -2.136133 -1.605920 0.035123
H 0.016242 -2.845056 -0.023229
H 2.167129 -1.601315 -0.019063
H -1.067357 4.129959 0.112238
H -1.993717 8.125117 0.037374
H 2.304361 8.139812 0.089788
H 2.300699 10.624377 0.035221
H 0.147812 11.862628 -0.022582
H -2.002568 10.617996 -0.018620
H 1.233619 4.887726 0.110209
