32

C 1.208781 0.191230 0.029845
C -0.000195 0.905918 0.061190
C -1.206195 0.184584 0.060363
C -1.199141 -1.209943 0.029822
C 0.010348 -1.905927 -0.000256
C 1.215787 -1.201454 -0.000516
C 0.073072 2.413465 0.095865
O 1.180313 2.988150 0.098578
N -1.092076 3.132553 0.132499
C -1.043425 8.825717 0.029451
C 0.165913 8.111659 0.060562
C 1.371574 8.833584 0.060041
C 1.363733 10.228141 0.030139
C 0.153855 10.923495 0.000308
C -1.051234 10.218405 -0.000353
C 0.093249 6.604100 0.095053
O -1.013741 6.028979 0.099671
N 1.258658 5.885303 0.129447
H 2.140737 0.752975 0.030153
H -2.162565 0.706203 0.083942
H -2.141073 -1.754797 0.030142
H 0.012595 -2.993874 -0.023216
H 2.160614 -1.741226 -0.023533
H -1.061073 4.163586 0.127668
H -1.995300 2.682310 0.096803
H -1.975014 8.263397 0.029530
H 2.328254 8.312483 0.083526
H 2.305396 10.773521 0.030777
H 0.150958 12.011468 -0.022057
H -1.996375 10.757653 -0.023179
H 1.227885 4.854250 0.124922
H 2.161693 6.335800 0.092135
