72
circumcoronene
C 4.9190242935 0.0000000000 0.0000000000
C 7.3785364402 0.0000000000 0.0000000000
C 9.8380485870 0.0000000000 0.0000000000
C 3.6892682201 -0.7100000000 0.0000000000
C 6.1487803669 -0.7100000000 0.0000000000
C 8.6082925136 -0.7100000000 0.0000000000
C 11.0678046604 -0.7100000000 0.0000000000
C 3.6892682201 -2.1300000000 0.0000000000
C 6.1487803669 -2.1300000000 0.0000000000
C 8.6082925136 -2.1300000000 0.0000000000
C 11.0678046604 -2.1300000000 0.0000000000
C 2.4595121467 -2.8400000000 0.0000000000
C 4.9190242935 -2.8400000000 0.0000000000
C 7.3785364402 -2.8400000000 0.0000000000
C 9.8380485870 -2.8400000000 0.0000000000
C 12.2975607337 -2.8400000000 0.0000000000
C 2.4595121467 -4.2600000000 0.0000000000
C 4.9190242935 -4.2600000000 0.0000000000
C 7.3785364402 -4.2600000000 0.0000000000
C 9.8380485870 -4.2600000000 0.0000000000
C 12.2975607337 -4.2600000000 0.0000000000
C 1.2297560734 -4.9700000000 0.0000000000
C 3.6892682201 -4.9700000000 0.0000000000
C 6.1487803669 -4.9700000000 0.0000000000
C 8.6082925136 -4.9700000000 0.0000000000
C 11.0678046604 -4.9700000000 0.0000000000
C 13.5273168071 -4.9700000000 0.0000000000
C 1.2297560734 -6.3900000000 0.0000000000
C 3.6892682201 -6.3900000000 0.0000000000
C 6.1487803669 -6.3900000000 0.0000000000
C 8.6082925136 -6.3900000000 0.0000000000
C 11.0678046604 -6.3900000000 0.0000000000
C 13.5273168071 -6.3900000000 0.0000000000
C 2.4595121467 -7.1000000000 0.0000000000
C 4.9190242935 -7.1000000000 0.0000000000
C 7.3785364402 -7.1000000000 0.0000000000
C 9.8380485870 -7.1000000000 0.0000000000
C 12.2975607337 -7.1000000000 0.0000000000
C 2.4595121467 -8.5200000000 0.0000000000
C 4.9190242935 -8.5200000000 0.0000000000
C 7.3785364402 -8.5200000000 0.0000000000
C 9.8380485870 -8.5200000000 0.0000000000
C 12.2975607337 -8.5200000000 0.0000000000
C 3.6892682201 -9.2300000000 0.0000000000
C 6.1487803669 -9.2300000000 0.0000000000
C 8.6082925136 -9.2300000000 0.0000000000
C 11.0678046604 -9.2300000000 0.0000000000
C 3.6892682201 -10.6500000000 0.0000000000
C 6.1487803669 -10.6500000000 0.0000000000
C 8.6082925136 -10.6500000000 0.0000000000
C 11.0678046604 -10.6500000000 0.0000000000
C 4.9190242935 -11.3600000000 0.0000000000
C 7.3785364402 -11.3600000000 0.0000000000
C 9.8380485870 -11.3600000000 0.0000000000
H 4.9190242935 1.0900000000 0.0000000000
H 7.3785364402 1.0900000000 0.0000000000
H 9.8380485870 1.0900000000 0.0000000000
H 2.7453005300 -0.1650000000 0.0000000000
H 12.0117723505 -0.1650000000 0.0000000000
H 1.5155444566 -2.2950000000 0.0000000000
H 13.2415284239 -2.2950000000 0.0000000000
H 0.2857883832 -4.4250000000 0.0000000000
H 14.4712844972 -4.4250000000 0.0000000000
H 0.2857883832 -6.9350000000 0.0000000000
H 14.4712844972 -6.9350000000 0.0000000000
H 1.5155444566 -9.0650000000 0.0000000000
H 13.2415284239 -9.0650000000 0.0000000000
H 2.7453005300 -11.1950000000 0.0000000000
H 12.0117723505 -11.1950000000 0.0000000000
H 4.9190242935 -12.4500000000 0.0000000000
H 7.3785364402 -12.4500000000 0.0000000000
H 9.8380485870 -12.4500000000 0.0000000000
