120
circumcircumcoronene
C 6.1487803669 0.0000000000 0.0000000000
C 8.6082925136 0.0000000000 0.0000000000
C 11.0678046604 0.0000000000 0.0000000000
C 13.5273168071 0.0000000000 0.0000000000
C 4.9190242935 -0.7100000000 0.0000000000
C 7.3785364402 -0.7100000000 0.0000000000
C 9.8380485870 -0.7100000000 0.0000000000
C 12.2975607337 -0.7100000000 0.0000000000
C 14.7570728805 -0.7100000000 0.0000000000
C 4.9190242935 -2.1300000000 0.0000000000
C 7.3785364402 -2.1300000000 0.0000000000
C 9.8380485870 -2.1300000000 0.0000000000
C 12.2975607337 -2.1300000000 0.0000000000
C 14.7570728805 -2.1300000000 0.0000000000
C 3.6892682201 -2.8400000000 0.0000000000
C 6.1487803669 -2.8400000000 0.0000000000
C 8.6082925136 -2.8400000000 0.0000000000
C 11.0678046604 -2.8400000000 0.0000000000
C 13.5273168071 -2.8400000000 0.0000000000
C 15.9868289539 -2.8400000000 0.0000000000
C 3.6892682201 -4.2600000000 0.0000000000
C 6.1487803669 -4.2600000000 0.0000000000
C 8.6082925136 -4.2600000000 0.0000000000
C 11.0678046604 -4.2600000000 0.0000000000
C 13.5273168071 -4.2600000000 0.0000000000
C 15.9868289539 -4.2600000000 0.0000000000
C 2.4595121467 -4.9700000000 0.0000000000
C 4.9190242935 -4.9700000000 0.0000000000
C 7.3785364402 -4.9700000000 0.0000000000
C 9.8380485870 -4.9700000000 0.0000000000
C 12.2975607337 -4.9700000000 0.0000000000
C 14.7570728805 -4.9700000000 0.0000000000
C 17.2165850272 -4.9700000000 0.0000000000
C 2.4595121467 -6.3900000000 0.0000000000
C 4.9190242935 -6.3900000000 0.0000000000
C 7.3785364402 -6.3900000000 0.0000000000
C 9.8380485870 -6.3900000000 0.0000000000
C 12.2975607337 -6.3900000000 0.0000000000
C 14.7570728805 -6.3900000000 0.0000000000
C 17.2165850272 -6.3900000000 0.0000000000
C 1.2297560734 -7.1000000000 0.0000000000
C 3.6892682201 -7.1000000000 0.0000000000
C 6.1487803669 -7.1000000000 0.0000000000
C 8.6082925136 -7.1000000000 0.0000000000
C 11.0678046604 -7.1000000000 0.0000000000
C 13.5273168071 -7.1000000000 0.0000000000
C 15.9868289539 -7.1000000000 0.0000000000
C 18.4463411006 -7.1000000000 0.0000000000
C 1.2297560734 -8.5200000000 0.0000000000
C 3.6892682201 -8.5200000000 0.0000000000
C 6.1487803669 -8.5200000000 0.0000000000
C 8.6082925136 -8.5200000000 0.0000000000
C 11.0678046604 -8.5200000000 0.0000000000
C 13.5273168071 -8.5200000000 0.0000000000
C 15.9868289539 -8.5200000000 0.0000000000
C 18.4463411006 -8.5200000000 0.0000000000
C 2.4595121467 -9.2300000000 0.0000000000
C 4.9190242935 -9.2300000000 0.0000000000
C 7.3785364402 -9.2300000000 0.0000000000
C 9.8380485870 -9.2300000000 0.0000000000
C 12.2975607337 -9.2300000000 0.0000000000
C 14.7570728805 -9.2300000000 0.0000000000
C 17.2165850272 -9.2300000000 0.0000000000
C 2.4595121467 -10.6500000000 0.0000000000
C 4.9190242935 -10.6500000000 0.0000000000
C 7.3785364402 -10.6500000000 0.0000000000
C 9.8380485870 -10.6500000000 0.0000000000
C 12.2975607337 -10.6500000000 0.0000000000
C 14.7570728805 -10.6500000000 0.0000000000
C 17.2165850272 -10.6500000000 0.0000000000
C 3.6892682201 -11.3600000000 0.0000000000
C 6.1487803669 -11.3600000000 0.0000000000
C 8.6082925136 -11.3600000000 0.0000000000
C 11.0678046604 -11.3600000000 0.0000000000
C 13.5273168071 -11.3600000000 0.0000000000
C 15.9868289539 -11.3600000000 0.0000000000
C 3.6892682201 -12.7800000000 0.0000000000
C 6.1487803669 -12.7800000000 0.0000000000
C 8.6082925136 -12.7800000000 0.0000000000
C 11.0678046604 -12.7800000000 0.0000000000
C 13.5273168071 -12.7800000000 0.0000000000
C 15.9868289539 -12.7800000000 0.0000000000
C 4.9190242935 -13.4900000000 0.0000000000
C 7.3785364402 -13.4900000000 0.0000000000
C 9.8380485870 -13.4900000000 0.0000000000
C 12.2975607337 -13.4900000000 0.0000000000
C 14.7570728805 -13.4900000000 0.0000000000
C 4.9190242935 -14.9100000000 0.0000000000
C 7.3785364402 -14.9100000000 0.0000000000
C 9.8380485870 -14.9100000000 0.0000000000
C 12.2975607337 -14.9100000000 0.0000000000
C 14.7570728805 -14.9100000000 0.0000000000
C 6.1487803669 -15.6200000000 0.0000000000
C 8.6082925136 -15.6200000000 0.0000000000
C 11.0678046604 -15.6200000000 0.0000000000
C 13.5273168071 -15.6200000000 0.0000000000
H 6.1487803669 1.0900000000 0.0000000000
H 8.6082925136 1.0900000000 0.0000000000
H 11.0678046604 1.0900000000 0.0000000000
H 13.5273168071 1.0900000000 0.0000000000
H 3.9750566034 -0.1650000000 0.0000000000
H 15.7010405706 -0.1650000000 0.0000000000
H 2.7453005300 -2.2950000000 0.0000000000
H 16.9307966440 -2.2950000000 0.0000000000
H 1.5155444566 -4.4250000000 0.0000000000
H 18.1605527174 -4.4250000000 0.0000000000
H 0.2857883832 -6.5550000000 0.0000000000
H 19.3903087907 -6.5550000000 0.0000000000
H 0.2857883832 -9.0650000000 0.0000000000
H 19.3903087907 -9.0650000000 0.0000000000
H 1.5155444566 -11.1950000000 0.0000000000
H 18.1605527174 -11.1950000000 0.0000000000
H 2.7453005300 -13.3250000000 0.0000000000
H 16.9307966440 -13.3250000000 0.0000000000
H 3.9750566034 -15.4550000000 0.0000000000
H 15.7010405706 -15.4550000000 0.0000000000
H 6.1487803669 -16.7100000000 0.0000000000
H 8.6082925136 -16.7100000000 0.0000000000
H 11.0678046604 -16.7100000000 0.0000000000
H 13.5273168071 -16.7100000000 0.0000000000
