18
terephthalic_acid
C      1.400000     0.232865     0.000000
C      0.700000     1.445300     0.000000
C     -0.700000     1.445300     0.000000
C     -1.400000     0.232865     0.000000
C     -0.700000    -0.979571     0.000000
C      0.700000    -0.979571     0.000000
H      1.240000     2.380608     0.000000
H     -1.240000     2.380608     0.000000
H     -1.240000    -1.914878     0.000000
H      1.240000    -1.914878     0.000000
C      2.880000     0.232865     0.000000
O      3.485000     1.280755     0.000000
O      3.545000    -0.918949     0.000000
H      4.030000    -1.758994     0.000000
C     -2.880000     0.232865     0.000000
O     -3.485000     1.280755     0.000000
O     -3.545000    -0.918949     0.000000
H     -4.030000    -1.758994     0.000000
